echo
start LiF
geometry  units angstroms noautosym  noautoz
Li        0.0000000000      0.0000000000      0.00066850000
F        0.0000000000      0.0000000000       1.50066850000
 symmetry c1
end

basis
 *  library 6-31G
end

dft
 xc b3lyp
 mult 1
end

xtb 
 nspin 1
end

qmd
 dt_nucl 41.0 # 1 fs
 nstep_nucl 5000
 thermostat none
 #thermostat langevin 0.1
 targ_temp 300.0
 com_step 10
 rand_seed 12345
 print_xyz 1
 linear 
end

task xtb qmd



